p edge 21
e 0 2
e 0 13
e 0 18
e 0 19
e 1 5
e 1 11
e 1 13
e 1 16
e 1 19
e 2 12
e 2 18
e 3 4
e 3 10
e 3 12
e 3 15
e 4 10
e 4 12
e 4 17
e 5 6
e 5 8
e 5 9
e 5 11
e 5 14
e 5 16
e 6 7
e 6 9
e 6 16
e 6 20
e 7 9
e 7 20
e 8 11
e 8 14
e 9 14
e 11 13
e 12 15
e 12 17
e 12 18
e 13 18
e 13 19
e 15 18
e 16 19
e 16 20
c k 12
